
Log started (V22.1.0.0) Sun Jan 15 16:46:23 2023


Problem '/tmp/91d9dcf5e50c4e26b58a6f35f3f7dffd-pulp.lp' read.
Read time = 0.01 sec. (0.35 ticks)
Version identifier: 22.1.0.0 | 2022-03-09 | 1a383f8ce
Tried aggregator 3 times.
MIP Presolve eliminated 1200 rows and 669 columns.
MIP Presolve modified 2511 coefficients.
Aggregator did 486 substitutions.
Reduced MIP has 2357 rows, 1893 columns, and 6664 nonzeros.
Reduced MIP has 1057 binaries, 836 generals, 0 SOSs, and 0 indicators.
Presolve time = 0.02 sec. (13.12 ticks)
Probing fixed 97 vars, tightened 259 bounds.
Probing time = 0.00 sec. (1.51 ticks)
Cover probing fixed 0 vars, tightened 573 bounds.
Tried aggregator 1 time.
Detecting symmetries...
MIP Presolve eliminated 28 rows and 125 columns.
MIP Presolve modified 961 coefficients.
Reduced MIP has 2329 rows, 1768 columns, and 6511 nonzeros.
Reduced MIP has 932 binaries, 836 generals, 0 SOSs, and 0 indicators.
Presolve time = 0.01 sec. (5.22 ticks)
Probing fixed 0 vars, tightened 260 bounds.
Probing time = 0.00 sec. (1.36 ticks)
Cover probing fixed 0 vars, tightened 560 bounds.
Clique table members: 338.
MIP emphasis: balance optimality and feasibility.
MIP search method: dynamic search.
Parallel mode: deterministic, using up to 8 threads.
Root relaxation solution time = 0.16 sec. (66.93 ticks)

        Nodes                                         Cuts/
   Node  Left     Objective  IInf  Best Integer    Best Bound    ItCnt     Gap

      0     0       76.8910   618                     76.8910     1378         
*     0+    0                          299.0000       76.8910            74.28%
*     0+    0                          152.0000       76.8910            49.41%
      0     0       81.1803   643      152.0000     Cuts: 269     3811   46.59%
      0     0       83.3776   666      152.0000     Cuts: 163     4970   45.15%
      0     0       84.2759   681      152.0000     Cuts: 115     5488   44.56%
*     0+    0                          151.0000       84.2759            44.19%
      0     0  -1.00000e+75     0      151.0000       84.2759     5488   44.19%
      0     0       84.7441   719      151.0000     Cuts: 105     5948   43.88%
      0     0       84.9132   730      151.0000      Cuts: 68     6178   43.77%
Detecting symmetries...
      0     0       85.0435   668      151.0000      Cuts: 46     6290   43.68%
      0     0       85.0729   695      151.0000      Cuts: 11     6337   43.66%
      0     0       85.0817   696      151.0000      Cuts: 11     6349   43.65%
      0     0       85.0817   700      151.0000       Cuts: 6     6354   43.65%
      0     0       85.0817   713      151.0000     Covers: 1     6355   43.65%
*     0+    0                          150.0000       85.0817            43.28%
*     0+    0                          148.0000       85.0817            42.51%
*     0+    0                          147.0000       85.0817            42.12%
*     0+    0                          143.0000       85.0817            40.50%
      0     0  -1.00000e+75     0      143.0000       85.0817     6355   40.50%
Detecting symmetries...
      0     2       85.0817   713      143.0000       85.0817     6355   40.50%
Elapsed time = 3.04 sec. (1009.66 ticks, tree = 0.02 MB, solutions = 7)
*    10+    2                          141.0000       85.1020            39.64%
*    12+    2                          140.0000       85.1020            39.21%
     36    31       86.3455   656      140.0000       85.1899    16608   39.15%
    129    98       86.0314   519      140.0000       85.1899    37074   39.15%
    300   208       87.8504   453      140.0000       85.1899    60643   39.15%
    563   470       88.1789   516      140.0000       85.1899    89034   39.15%
    758   609       97.5277   158      140.0000       85.1899   112290   39.15%
*   838+  657                          139.0000       85.1899            38.71%
   1036   819      105.0052    33      139.0000       85.1899   143813   38.71%
*  1243   993      integral     0      117.0000       85.1899   161660   27.19%
*  1245+  993                          116.0000       85.1899            26.56%
   1393  1073      102.4345   179      116.0000       85.2067   170031   26.55%
   1755  1397      101.2783   164      116.0000       85.2067   209157   26.55%
   1952  1584       87.2727   454      116.0000       85.2067   233801   26.55%
*  2733+ 1939                          112.0000       85.2085            23.92%
   2943  2503       89.0567   436      112.0000       85.2316   368280   23.90%
Elapsed time = 14.42 sec. (4122.25 ticks, tree = 7.27 MB, solutions = 15)

Performing restart 1

Repeating presolve.
Tried aggregator 1 time.
MIP Presolve modified 950 coefficients.
Reduced MIP has 2329 rows, 1768 columns, and 6511 nonzeros.
Reduced MIP has 932 binaries, 836 generals, 0 SOSs, and 0 indicators.
Presolve time = 0.01 sec. (3.76 ticks)
Tried aggregator 1 time.
MIP Presolve modified 598 coefficients.
Reduced MIP has 2329 rows, 1768 columns, and 6511 nonzeros.
Reduced MIP has 932 binaries, 836 generals, 0 SOSs, and 0 indicators.
Presolve time = 0.01 sec. (5.00 ticks)
Represolve time = 0.03 sec. (16.36 ticks)
   3368     0       85.9997   738      112.0000     Cuts: 180   435502   23.21%
   3368     0       86.5051   757      112.0000     Cuts: 246   437860   22.76%
   3368     0       87.0813   777      112.0000     Cuts: 274   439153   22.25%
*  3368+    0                          111.0000       87.0813            21.55%
   3368     0       87.3969   683      111.0000     Cuts: 224   440077   21.26%
   3368     0       87.5884   731      111.0000     Cuts: 248   441722   21.09%
   3368     0       87.7458   907      111.0000     Cuts: 239   442319   20.95%
   3368     0       87.8623   910      111.0000     Cuts: 273   443208   20.84%
   3368     0       88.0731   818      111.0000     Cuts: 286   444084   20.65%
   3368     0       88.1866   906      111.0000     Cuts: 301   445203   20.55%
   3368     0       88.2009   848      111.0000     Cuts: 278   446264   20.48%
   3368     0       88.4667   690      111.0000     Cuts: 289   447459   20.30%
   3368     0       88.6257   669      111.0000     Cuts: 258   448510   20.16%
   3368     0       88.6612   703      111.0000     Cuts: 291   448934   20.13%
   3368     0       88.7011   813      111.0000     Cuts: 260   450057   20.09%
   3368     0       88.7829   800      111.0000     Cuts: 377   450814   20.02%
